p edge 1771 1731
e 1 2
e 1 3
e 1 4
e 1 5
e 1 6
e 1 7
e 1 8
e 1 9
e 1 10
e 1 11
e 1 12
e 1 13
e 1 14
e 1 15
e 16 17
e 16 18
e 16 19
e 16 20
e 16 21
e 16 22
e 16 23
e 16 24
e 16 25
e 16 26
e 16 27
e 16 28
e 16 29
e 16 30
e 16 31
e 16 32
e 16 33
e 16 34
e 16 35
e 16 36
e 16 37
e 16 38
e 16 39
e 16 40
e 16 41
e 16 42
e 16 43
e 16 44
e 16 45
e 16 46
e 16 47
e 16 48
e 16 49
e 16 50
e 16 51
e 16 52
e 16 53
e 16 54
e 16 55
e 16 56
e 16 57
e 16 58
e 16 59
e 16 60
e 16 61
e 16 62
e 16 63
e 16 64
e 16 65
e 16 66
e 16 67
e 16 68
e 16 69
e 16 70
e 16 71
e 16 72
e 16 73
e 16 74
e 16 75
e 16 76
e 16 77
e 16 78
e 16 79
e 16 80
e 16 81
e 16 82
e 16 83
e 84 85
e 84 86
e 84 87
e 84 88
e 84 89
e 84 90
e 84 91
e 84 92
e 84 93
e 84 94
e 84 95
e 84 96
e 84 97
e 84 98
e 84 99
e 84 100
e 84 101
e 84 102
e 84 103
e 84 104
e 84 105
e 84 106
e 84 107
e 84 108
e 84 109
e 84 110
e 84 111
e 84 112
e 84 113
e 84 114
e 84 115
e 84 116
e 84 117
e 84 118
e 84 119
e 84 120
e 84 121
e 84 122
e 84 123
e 84 124
e 84 125
e 84 126
e 84 127
e 84 128
e 84 129
e 84 130
e 84 131
e 84 132
e 84 133
e 84 134
e 84 135
e 84 136
e 84 137
e 84 138
e 84 139
e 84 140
e 84 141
e 84 142
e 84 143
e 84 144
e 84 145
e 84 146
e 84 147
e 84 148
e 84 149
e 84 150
e 84 151
e 84 152
e 84 153
e 84 154
e 155 156
e 155 157
e 155 158
e 155 159
e 155 160
e 155 161
e 155 162
e 155 163
e 155 164
e 155 165
e 155 166
e 155 167
e 155 168
e 155 169
e 155 170
e 155 171
e 155 172
e 155 173
e 155 174
e 155 175
e 155 176
e 155 177
e 155 178
e 155 179
e 155 180
e 155 181
e 155 182
e 155 183
e 155 184
e 155 185
e 155 186
e 155 187
e 155 188
e 155 189
e 155 190
e 155 191
e 155 192
e 155 193
e 155 194
e 155 195
e 155 196
e 155 197
e 155 198
e 155 199
e 155 200
e 155 201
e 155 202
e 155 203
e 155 204
e 155 205
e 155 206
e 155 207
e 155 208
e 155 209
e 155 210
e 155 211
e 155 212
e 155 213
e 155 214
e 155 215
e 155 216
e 155 217
e 155 218
e 155 219
e 155 220
e 155 221
e 155 222
e 155 223
e 155 224
e 155 225
e 155 226
e 227 228
e 227 229
e 227 230
e 227 231
e 227 232
e 227 233
e 227 234
e 227 235
e 227 236
e 227 237
e 227 238
e 227 239
e 227 240
e 227 241
e 227 242
e 227 243
e 227 244
e 227 245
e 227 246
e 247 248
e 247 249
e 247 250
e 247 251
e 247 252
e 247 253
e 247 254
e 247 255
e 247 256
e 247 257
e 247 258
e 247 259
e 247 260
e 247 261
e 247 262
e 263 264
e 263 265
e 263 266
e 263 267
e 263 268
e 263 269
e 263 270
e 263 271
e 263 272
e 263 273
e 263 274
e 263 275
e 263 276
e 263 277
e 263 278
e 263 279
e 263 280
e 263 281
e 263 282
e 263 283
e 263 284
e 263 285
e 263 286
e 263 287
e 263 288
e 263 289
e 263 290
e 263 291
e 263 292
e 263 293
e 263 294
e 263 295
e 296 297
e 296 298
e 296 299
e 296 300
e 296 301
e 296 302
e 296 303
e 296 304
e 296 305
e 296 306
e 296 307
e 296 308
e 296 309
e 296 310
e 296 311
e 296 312
e 296 313
e 296 314
e 296 315
e 296 316
e 296 317
e 296 318
e 296 319
e 296 320
e 296 321
e 296 322
e 296 323
e 296 324
e 296 325
e 296 326
e 296 327
e 296 328
e 296 329
e 296 330
e 296 331
e 296 332
e 296 333
e 296 334
e 296 335
e 296 336
e 296 337
e 296 338
e 296 339
e 296 340
e 296 341
e 296 342
e 296 343
e 296 344
e 296 345
e 296 346
e 296 347
e 296 348
e 296 349
e 296 350
e 296 351
e 296 352
e 296 353
e 296 354
e 296 355
e 296 356
e 296 357
e 296 358
e 296 359
e 296 360
e 296 361
e 296 362
e 296 363
e 296 364
e 296 365
e 296 366
e 367 368
e 367 369
e 367 370
e 367 371
e 367 372
e 367 373
e 367 374
e 367 375
e 367 376
e 367 377
e 367 378
e 367 379
e 367 380
e 367 381
e 367 382
e 367 383
e 367 384
e 367 385
e 367 386
e 367 387
e 367 388
e 367 389
e 367 390
e 367 391
e 367 392
e 393 394
e 393 395
e 393 396
e 393 397
e 393 398
e 393 399
e 393 400
e 393 401
e 393 402
e 393 403
e 393 404
e 393 405
e 393 406
e 393 407
e 393 408
e 393 409
e 393 410
e 393 411
e 393 412
e 393 413
e 393 414
e 393 415
e 393 416
e 393 417
e 393 418
e 393 419
e 393 420
e 393 421
e 393 422
e 393 423
e 393 424
e 393 425
e 393 426
e 393 427
e 393 428
e 393 429
e 393 430
e 393 431
e 393 432
e 393 433
e 393 434
e 393 435
e 393 436
e 393 437
e 393 438
e 393 439
e 393 440
e 393 441
e 393 442
e 393 443
e 393 444
e 393 445
e 393 446
e 393 447
e 393 448
e 393 449
e 393 450
e 393 451
e 393 452
e 393 453
e 393 454
e 393 455
e 393 456
e 393 457
e 393 458
e 393 459
e 393 460
e 393 461
e 393 462
e 393 463
e 393 464
e 393 465
e 393 466
e 467 468
e 467 469
e 467 470
e 467 471
e 467 472
e 467 473
e 467 474
e 467 475
e 467 476
e 467 477
e 467 478
e 467 479
e 467 480
e 467 481
e 467 482
e 467 483
e 484 485
e 484 486
e 484 487
e 484 488
e 484 489
e 484 490
e 484 491
e 484 492
e 484 493
e 484 494
e 484 495
e 484 496
e 484 497
e 484 498
e 484 499
e 484 500
e 484 501
e 484 502
e 484 503
e 484 504
e 484 505
e 484 506
e 484 507
e 484 508
e 484 509
e 484 510
e 484 511
e 484 512
e 484 513
e 484 514
e 484 515
e 484 516
e 484 517
e 484 518
e 484 519
e 484 520
e 484 521
e 484 522
e 484 523
e 484 524
e 484 525
e 526 527
e 526 528
e 526 529
e 526 530
e 526 531
e 526 532
e 526 533
e 526 534
e 526 535
e 526 536
e 526 537
e 526 538
e 526 539
e 526 540
e 526 541
e 526 542
e 526 543
e 526 544
e 526 545
e 526 546
e 526 547
e 526 548
e 526 549
e 526 550
e 526 551
e 526 552
e 526 553
e 526 554
e 526 555
e 526 556
e 557 558
e 557 559
e 557 560
e 557 561
e 557 562
e 557 563
e 557 564
e 557 565
e 557 566
e 557 567
e 557 568
e 557 569
e 557 570
e 557 571
e 557 572
e 557 573
e 557 574
e 557 575
e 557 576
e 557 577
e 557 578
e 557 579
e 557 580
e 557 581
e 557 582
e 557 583
e 557 584
e 557 585
e 557 586
e 557 587
e 557 588
e 557 589
e 557 590
e 557 591
e 557 592
e 557 593
e 557 594
e 595 596
e 595 597
e 595 598
e 595 599
e 595 600
e 595 601
e 595 602
e 595 603
e 595 604
e 595 605
e 595 606
e 595 607
e 595 608
e 595 609
e 595 610
e 595 611
e 595 612
e 595 613
e 595 614
e 595 615
e 595 616
e 595 617
e 595 618
e 595 619
e 595 620
e 621 622
e 621 623
e 621 624
e 621 625
e 621 626
e 621 627
e 621 628
e 621 629
e 621 630
e 621 631
e 621 632
e 621 633
e 621 634
e 621 635
e 621 636
e 621 637
e 621 638
e 621 639
e 621 640
e 621 641
e 621 642
e 621 643
e 621 644
e 621 645
e 621 646
e 621 647
e 621 648
e 621 649
e 621 650
e 621 651
e 621 652
e 621 653
e 621 654
e 621 655
e 621 656
e 621 657
e 621 658
e 621 659
e 621 660
e 621 661
e 621 662
e 621 663
e 621 664
e 621 665
e 621 666
e 621 667
e 621 668
e 621 669
e 621 670
e 621 671
e 621 672
e 621 673
e 621 674
e 621 675
e 621 676
e 621 677
e 621 678
e 621 679
e 621 680
e 621 681
e 621 682
e 621 683
e 621 684
e 621 685
e 621 686
e 687 688
e 687 689
e 687 690
e 687 691
e 687 692
e 687 693
e 687 694
e 687 695
e 687 696
e 687 697
e 687 698
e 687 699
e 687 700
e 687 701
e 687 702
e 687 703
e 687 704
e 687 705
e 687 706
e 687 707
e 687 708
e 687 709
e 687 710
e 687 711
e 687 712
e 687 713
e 687 714
e 687 715
e 687 716
e 687 717
e 687 718
e 687 719
e 687 720
e 687 721
e 687 722
e 687 723
e 687 724
e 687 725
e 687 726
e 687 727
e 687 728
e 687 729
e 687 730
e 687 731
e 687 732
e 687 733
e 687 734
e 687 735
e 687 736
e 687 737
e 687 738
e 687 739
e 687 740
e 687 741
e 687 742
e 687 743
e 687 744
e 687 745
e 687 746
e 687 747
e 687 748
e 687 749
e 687 750
e 687 751
e 687 752
e 687 753
e 687 754
e 687 755
e 687 756
e 687 757
e 687 758
e 687 759
e 687 760
e 687 761
e 687 762
e 687 763
e 687 764
e 687 765
e 687 766
e 687 767
e 768 769
e 768 770
e 768 771
e 768 772
e 768 773
e 768 774
e 768 775
e 768 776
e 768 777
e 768 778
e 768 779
e 768 780
e 768 781
e 768 782
e 768 783
e 768 784
e 768 785
e 768 786
e 768 787
e 768 788
e 768 789
e 768 790
e 768 791
e 768 792
e 768 793
e 768 794
e 768 795
e 768 796
e 768 797
e 768 798
e 768 799
e 768 800
e 768 801
e 802 803
e 802 804
e 802 805
e 802 806
e 802 807
e 802 808
e 802 809
e 802 810
e 802 811
e 802 812
e 802 813
e 802 814
e 802 815
e 802 816
e 802 817
e 802 818
e 802 819
e 802 820
e 802 821
e 802 822
e 802 823
e 802 824
e 802 825
e 802 826
e 802 827
e 802 828
e 802 829
e 802 830
e 802 831
e 802 832
e 802 833
e 802 834
e 802 835
e 802 836
e 802 837
e 802 838
e 802 839
e 802 840
e 802 841
e 802 842
e 802 843
e 802 844
e 802 845
e 802 846
e 802 847
e 802 848
e 802 849
e 802 850
e 802 851
e 802 852
e 802 853
e 802 854
e 802 855
e 802 856
e 802 857
e 802 858
e 802 859
e 860 861
e 860 862
e 860 863
e 860 864
e 860 865
e 860 866
e 860 867
e 860 868
e 860 869
e 860 870
e 860 871
e 860 872
e 860 873
e 874 875
e 874 876
e 874 877
e 874 878
e 874 879
e 874 880
e 874 881
e 874 882
e 874 883
e 874 884
e 874 885
e 874 886
e 874 887
e 874 888
e 874 889
e 874 890
e 874 891
e 874 892
e 874 893
e 874 894
e 874 895
e 874 896
e 874 897
e 874 898
e 874 899
e 874 900
e 874 901
e 874 902
e 874 903
e 874 904
e 874 905
e 874 906
e 874 907
e 874 908
e 874 909
e 874 910
e 874 911
e 874 912
e 874 913
e 874 914
e 874 915
e 874 916
e 874 917
e 874 918
e 874 919
e 874 920
e 874 921
e 874 922
e 874 923
e 874 924
e 874 925
e 874 926
e 874 927
e 874 928
e 874 929
e 874 930
e 874 931
e 874 932
e 874 933
e 874 934
e 874 935
e 874 936
e 874 937
e 874 938
e 874 939
e 874 940
e 874 941
e 874 942
e 874 943
e 874 944
e 945 946
e 945 947
e 945 948
e 945 949
e 945 950
e 945 951
e 945 952
e 945 953
e 945 954
e 945 955
e 945 956
e 945 957
e 945 958
e 945 959
e 945 960
e 945 961
e 945 962
e 945 963
e 945 964
e 945 965
e 945 966
e 945 967
e 945 968
e 945 969
e 945 970
e 945 971
e 945 972
e 945 973
e 945 974
e 945 975
e 945 976
e 945 977
e 945 978
e 945 979
e 945 980
e 945 981
e 945 982
e 945 983
e 945 984
e 945 985
e 945 986
e 945 987
e 945 988
e 945 989
e 945 990
e 945 991
e 945 992
e 945 993
e 945 994
e 945 995
e 945 996
e 945 997
e 945 998
e 945 999
e 945 1000
e 945 1001
e 945 1002
e 1003 1004
e 1003 1005
e 1003 1006
e 1003 1007
e 1003 1008
e 1003 1009
e 1003 1010
e 1003 1011
e 1003 1012
e 1003 1013
e 1003 1014
e 1003 1015
e 1003 1016
e 1003 1017
e 1003 1018
e 1003 1019
e 1003 1020
e 1003 1021
e 1003 1022
e 1003 1023
e 1003 1024
e 1003 1025
e 1003 1026
e 1003 1027
e 1003 1028
e 1003 1029
e 1003 1030
e 1003 1031
e 1003 1032
e 1003 1033
e 1003 1034
e 1003 1035
e 1003 1036
e 1003 1037
e 1003 1038
e 1003 1039
e 1003 1040
e 1003 1041
e 1003 1042
e 1003 1043
e 1003 1044
e 1003 1045
e 1003 1046
e 1003 1047
e 1003 1048
e 1003 1049
e 1003 1050
e 1003 1051
e 1003 1052
e 1003 1053
e 1003 1054
e 1003 1055
e 1003 1056
e 1003 1057
e 1003 1058
e 1003 1059
e 1003 1060
e 1003 1061
e 1003 1062
e 1003 1063
e 1003 1064
e 1065 1066
e 1065 1067
e 1065 1068
e 1065 1069
e 1065 1070
e 1065 1071
e 1065 1072
e 1065 1073
e 1065 1074
e 1065 1075
e 1065 1076
e 1065 1077
e 1065 1078
e 1065 1079
e 1065 1080
e 1065 1081
e 1065 1082
e 1065 1083
e 1084 1085
e 1084 1086
e 1084 1087
e 1084 1088
e 1084 1089
e 1084 1090
e 1084 1091
e 1084 1092
e 1084 1093
e 1084 1094
e 1084 1095
e 1084 1096
e 1084 1097
e 1084 1098
e 1084 1099
e 1084 1100
e 1084 1101
e 1084 1102
e 1103 1104
e 1103 1105
e 1103 1106
e 1103 1107
e 1103 1108
e 1103 1109
e 1103 1110
e 1103 1111
e 1103 1112
e 1103 1113
e 1103 1114
e 1103 1115
e 1103 1116
e 1103 1117
e 1103 1118
e 1103 1119
e 1103 1120
e 1121 1122
e 1121 1123
e 1121 1124
e 1121 1125
e 1121 1126
e 1121 1127
e 1121 1128
e 1121 1129
e 1121 1130
e 1121 1131
e 1121 1132
e 1121 1133
e 1121 1134
e 1121 1135
e 1121 1136
e 1121 1137
e 1121 1138
e 1121 1139
e 1121 1140
e 1121 1141
e 1121 1142
e 1121 1143
e 1121 1144
e 1121 1145
e 1121 1146
e 1121 1147
e 1121 1148
e 1121 1149
e 1121 1150
e 1121 1151
e 1121 1152
e 1121 1153
e 1121 1154
e 1121 1155
e 1121 1156
e 1121 1157
e 1121 1158
e 1121 1159
e 1121 1160
e 1121 1161
e 1121 1162
e 1121 1163
e 1121 1164
e 1121 1165
e 1121 1166
e 1121 1167
e 1121 1168
e 1121 1169
e 1121 1170
e 1121 1171
e 1121 1172
e 1121 1173
e 1121 1174
e 1121 1175
e 1121 1176
e 1121 1177
e 1121 1178
e 1121 1179
e 1121 1180
e 1121 1181
e 1121 1182
e 1121 1183
e 1121 1184
e 1121 1185
e 1121 1186
e 1121 1187
e 1121 1188
e 1121 1189
e 1121 1190
e 1121 1191
e 1121 1192
e 1193 1194
e 1193 1195
e 1193 1196
e 1193 1197
e 1193 1198
e 1193 1199
e 1193 1200
e 1193 1201
e 1193 1202
e 1193 1203
e 1193 1204
e 1193 1205
e 1193 1206
e 1193 1207
e 1193 1208
e 1193 1209
e 1193 1210
e 1193 1211
e 1193 1212
e 1193 1213
e 1193 1214
e 1193 1215
e 1193 1216
e 1193 1217
e 1193 1218
e 1193 1219
e 1193 1220
e 1193 1221
e 1193 1222
e 1193 1223
e 1193 1224
e 1193 1225
e 1193 1226
e 1193 1227
e 1193 1228
e 1193 1229
e 1193 1230
e 1193 1231
e 1193 1232
e 1193 1233
e 1193 1234
e 1193 1235
e 1193 1236
e 1193 1237
e 1193 1238
e 1193 1239
e 1193 1240
e 1193 1241
e 1193 1242
e 1193 1243
e 1193 1244
e 1193 1245
e 1193 1246
e 1193 1247
e 1193 1248
e 1193 1249
e 1193 1250
e 1193 1251
e 1193 1252
e 1253 1254
e 1253 1255
e 1253 1256
e 1253 1257
e 1253 1258
e 1253 1259
e 1253 1260
e 1253 1261
e 1253 1262
e 1253 1263
e 1253 1264
e 1253 1265
e 1253 1266
e 1253 1267
e 1253 1268
e 1253 1269
e 1253 1270
e 1253 1271
e 1253 1272
e 1253 1273
e 1253 1274
e 1253 1275
e 1253 1276
e 1253 1277
e 1253 1278
e 1253 1279
e 1253 1280
e 1253 1281
e 1253 1282
e 1253 1283
e 1253 1284
e 1253 1285
e 1253 1286
e 1253 1287
e 1253 1288
e 1253 1289
e 1253 1290
e 1253 1291
e 1253 1292
e 1253 1293
e 1253 1294
e 1253 1295
e 1296 1297
e 1296 1298
e 1296 1299
e 1296 1300
e 1296 1301
e 1296 1302
e 1296 1303
e 1296 1304
e 1296 1305
e 1296 1306
e 1296 1307
e 1296 1308
e 1296 1309
e 1296 1310
e 1296 1311
e 1296 1312
e 1296 1313
e 1296 1314
e 1296 1315
e 1296 1316
e 1296 1317
e 1296 1318
e 1296 1319
e 1320 1321
e 1320 1322
e 1320 1323
e 1320 1324
e 1320 1325
e 1320 1326
e 1320 1327
e 1320 1328
e 1320 1329
e 1320 1330
e 1320 1331
e 1320 1332
e 1320 1333
e 1320 1334
e 1320 1335
e 1320 1336
e 1320 1337
e 1320 1338
e 1320 1339
e 1320 1340
e 1320 1341
e 1320 1342
e 1320 1343
e 1320 1344
e 1320 1345
e 1320 1346
e 1320 1347
e 1320 1348
e 1320 1349
e 1320 1350
e 1320 1351
e 1320 1352
e 1320 1353
e 1320 1354
e 1320 1355
e 1320 1356
e 1320 1357
e 1320 1358
e 1320 1359
e 1320 1360
e 1320 1361
e 1320 1362
e 1320 1363
e 1320 1364
e 1320 1365
e 1320 1366
e 1320 1367
e 1320 1368
e 1320 1369
e 1320 1370
e 1320 1371
e 1320 1372
e 1320 1373
e 1374 1375
e 1374 1376
e 1374 1377
e 1374 1378
e 1374 1379
e 1374 1380
e 1374 1381
e 1374 1382
e 1374 1383
e 1374 1384
e 1374 1385
e 1374 1386
e 1374 1387
e 1374 1388
e 1374 1389
e 1374 1390
e 1374 1391
e 1374 1392
e 1374 1393
e 1374 1394
e 1374 1395
e 1374 1396
e 1374 1397
e 1374 1398
e 1374 1399
e 1374 1400
e 1374 1401
e 1374 1402
e 1374 1403
e 1374 1404
e 1374 1405
e 1374 1406
e 1374 1407
e 1374 1408
e 1374 1409
e 1374 1410
e 1374 1411
e 1374 1412
e 1374 1413
e 1374 1414
e 1374 1415
e 1374 1416
e 1374 1417
e 1374 1418
e 1374 1419
e 1374 1420
e 1374 1421
e 1374 1422
e 1374 1423
e 1374 1424
e 1374 1425
e 1374 1426
e 1374 1427
e 1374 1428
e 1429 1430
e 1429 1431
e 1429 1432
e 1429 1433
e 1429 1434
e 1429 1435
e 1429 1436
e 1429 1437
e 1429 1438
e 1429 1439
e 1429 1440
e 1429 1441
e 1442 1443
e 1442 1444
e 1442 1445
e 1442 1446
e 1442 1447
e 1442 1448
e 1442 1449
e 1442 1450
e 1442 1451
e 1442 1452
e 1453 1454
e 1453 1455
e 1453 1456
e 1453 1457
e 1453 1458
e 1453 1459
e 1453 1460
e 1453 1461
e 1453 1462
e 1453 1463
e 1453 1464
e 1453 1465
e 1453 1466
e 1453 1467
e 1453 1468
e 1453 1469
e 1453 1470
e 1453 1471
e 1453 1472
e 1453 1473
e 1453 1474
e 1453 1475
e 1453 1476
e 1453 1477
e 1453 1478
e 1453 1479
e 1453 1480
e 1453 1481
e 1453 1482
e 1453 1483
e 1453 1484
e 1453 1485
e 1453 1486
e 1453 1487
e 1453 1488
e 1453 1489
e 1453 1490
e 1453 1491
e 1453 1492
e 1453 1493
e 1453 1494
e 1453 1495
e 1453 1496
e 1453 1497
e 1453 1498
e 1453 1499
e 1453 1500
e 1453 1501
e 1453 1502
e 1453 1503
e 1453 1504
e 1453 1505
e 1453 1506
e 1453 1507
e 1453 1508
e 1453 1509
e 1453 1510
e 1453 1511
e 1453 1512
e 1453 1513
e 1453 1514
e 1453 1515
e 1453 1516
e 1453 1517
e 1453 1518
e 1453 1519
e 1453 1520
e 1453 1521
e 1453 1522
e 1453 1523
e 1453 1524
e 1453 1525
e 1526 1527
e 1526 1528
e 1526 1529
e 1526 1530
e 1526 1531
e 1526 1532
e 1526 1533
e 1526 1534
e 1526 1535
e 1526 1536
e 1526 1537
e 1526 1538
e 1526 1539
e 1526 1540
e 1526 1541
e 1526 1542
e 1526 1543
e 1526 1544
e 1526 1545
e 1526 1546
e 1526 1547
e 1526 1548
e 1526 1549
e 1526 1550
e 1526 1551
e 1526 1552
e 1526 1553
e 1526 1554
e 1526 1555
e 1526 1556
e 1526 1557
e 1526 1558
e 1526 1559
e 1526 1560
e 1526 1561
e 1526 1562
e 1526 1563
e 1526 1564
e 1526 1565
e 1526 1566
e 1526 1567
e 1526 1568
e 1526 1569
e 1526 1570
e 1526 1571
e 1526 1572
e 1526 1573
e 1526 1574
e 1526 1575
e 1526 1576
e 1526 1577
e 1526 1578
e 1526 1579
e 1526 1580
e 1526 1581
e 1526 1582
e 1526 1583
e 1526 1584
e 1526 1585
e 1526 1586
e 1587 1588
e 1587 1589
e 1587 1590
e 1587 1591
e 1587 1592
e 1587 1593
e 1587 1594
e 1587 1595
e 1587 1596
e 1587 1597
e 1587 1598
e 1587 1599
e 1587 1600
e 1587 1601
e 1587 1602
e 1587 1603
e 1587 1604
e 1587 1605
e 1587 1606
e 1587 1607
e 1587 1608
e 1587 1609
e 1587 1610
e 1587 1611
e 1587 1612
e 1587 1613
e 1587 1614
e 1587 1615
e 1587 1616
e 1587 1617
e 1587 1618
e 1587 1619
e 1587 1620
e 1587 1621
e 1587 1622
e 1587 1623
e 1587 1624
e 1587 1625
e 1587 1626
e 1587 1627
e 1587 1628
e 1587 1629
e 1587 1630
e 1587 1631
e 1587 1632
e 1587 1633
e 1587 1634
e 1587 1635
e 1587 1636
e 1637 1638
e 1637 1639
e 1637 1640
e 1637 1641
e 1637 1642
e 1637 1643
e 1637 1644
e 1637 1645
e 1637 1646
e 1637 1647
e 1637 1648
e 1637 1649
e 1637 1650
e 1637 1651
e 1637 1652
e 1637 1653
e 1637 1654
e 1637 1655
e 1637 1656
e 1637 1657
e 1637 1658
e 1637 1659
e 1637 1660
e 1637 1661
e 1637 1662
e 1637 1663
e 1637 1664
e 1637 1665
e 1637 1666
e 1637 1667
e 1637 1668
e 1637 1669
e 1637 1670
e 1637 1671
e 1637 1672
e 1637 1673
e 1637 1674
e 1637 1675
e 1637 1676
e 1637 1677
e 1637 1678
e 1637 1679
e 1637 1680
e 1637 1681
e 1637 1682
e 1637 1683
e 1637 1684
e 1637 1685
e 1637 1686
e 1637 1687
e 1637 1688
e 1637 1689
e 1637 1690
e 1637 1691
e 1637 1692
e 1637 1693
e 1637 1694
e 1637 1695
e 1637 1696
e 1637 1697
e 1637 1698
e 1637 1699
e 1637 1700
e 1637 1701
e 1637 1702
e 1637 1703
e 1637 1704
e 1637 1705
e 1637 1706
e 1637 1707
e 1637 1708
e 1637 1709
e 1637 1710
e 1637 1711
e 1637 1712
e 1713 1714
e 1713 1715
e 1713 1716
e 1713 1717
e 1713 1718
e 1713 1719
e 1713 1720
e 1713 1721
e 1713 1722
e 1713 1723
e 1713 1724
e 1713 1725
e 1713 1726
e 1713 1727
e 1713 1728
e 1713 1729
e 1713 1730
e 1713 1731
e 1713 1732
e 1713 1733
e 1713 1734
e 1713 1735
e 1713 1736
e 1713 1737
e 1713 1738
e 1713 1739
e 1713 1740
e 1713 1741
e 1713 1742
e 1713 1743
e 1713 1744
e 1713 1745
e 1713 1746
e 1713 1747
e 1713 1748
e 1713 1749
e 1713 1750
e 1713 1751
e 1713 1752
e 1713 1753
e 1713 1754
e 1713 1755
e 1713 1756
e 1713 1757
e 1713 1758
e 1713 1759
e 1713 1760
e 1761 1762
e 1761 1763
e 1761 1764
e 1761 1765
e 1761 1766
e 1761 1767
e 1761 1768
e 1761 1769
e 1761 1770
e 1761 1771
